5 5
5 3 2 18 1 17 4 12 4 2 2 4 15 5 15 1 13 4 5 13 2 20 3 8 1 10 1 1 10 2 2 19 3 16
4 2 5 3 2 2 4 5 20 4 11 1 5 3 3 4 4 20 5 4 3 19 2 9 3 5 2 4 11 1 9
6 1 1 13 1 3 17 4 2 20 5 20 4 3 1 2 1 5 6 1 2 7 4 5 12 2 12 4 10 1 6
7 3 2 6 5 15 1 17 1 1 9 2 3 16 1 12 4 4 8 2 11 5 6 3 20 5 2 4 3 18 1 9 4 12 5 10 5 1 20 2 4 3 13 5 7 4 19 2 1 14 2 15
5 5 3 18 1 8 2 7 4 17 5 12 2 3 17 4 17 5 2 18 1 8 4 15 3 6 5 8 5 2 4 3 5 4 14 1 3 5 19 5 2 12 4 20 3 11 5 17 1 12